objective value:                                 -240
t_x16                                               1 	(obj:-100)
t_x31                                               1 	(obj:-100)
t_x87                                               1 	(obj:-100)
t_y31_214                                           1 	(obj:1)
t_y31_202                                           1 	(obj:1)
t_y87_268                                           1 	(obj:1)
t_y31_64                                            1 	(obj:1)
t_y87_148                                           1 	(obj:1)
t_y1_31                                             1 	(obj:1)
t_y31_36                                            1 	(obj:1)
t_y6_31                                             1 	(obj:1)
t_y81_87                                            1 	(obj:1)
t_y87_253                                           1 	(obj:1)
t_y31_300                                           1 	(obj:1)
t_y31_199                                           1 	(obj:1)
t_y87_271                                           1 	(obj:1)
t_y31_178                                           1 	(obj:1)
t_y31_265                                           1 	(obj:1)
t_y31_169                                           1 	(obj:1)
t_y31_62                                            1 	(obj:1)
t_y31_150                                           1 	(obj:1)
t_y16_245                                           1 	(obj:1)
t_y16_84                                            1 	(obj:1)
t_y87_289                                           1 	(obj:1)
t_y16_227                                           1 	(obj:1)
t_y16_209                                           1 	(obj:1)
t_y72_87                                            1 	(obj:1)
t_y31_115                                           1 	(obj:1)
t_y87_153                                           1 	(obj:1)
t_y16_105                                           1 	(obj:1)
t_y87_277                                           1 	(obj:1)
t_y16_289                                           1 	(obj:1)
t_y87_109                                           1 	(obj:1)
t_y16_237                                           1 	(obj:1)
t_y31_140                                           1 	(obj:1)
t_y31_96                                            1 	(obj:1)
t_y24_31                                            1 	(obj:1)
t_y31_68                                            1 	(obj:1)
t_y31_188                                           1 	(obj:1)
t_y16_139                                           1 	(obj:1)
t_y31_116                                           1 	(obj:1)
t_y16_202                                           1 	(obj:1)
t_y31_288                                           1 	(obj:1)
t_y16_160                                           1 	(obj:1)
t_y87_286                                           1 	(obj:1)
t_y16_98                                            1 	(obj:1)
t_y16_264                                           1 	(obj:1)
t_y87_122                                           1 	(obj:1)
t_y31_221                                           1 	(obj:1)
t_y12_87                                            1 	(obj:1)
t_y87_143                                           1 	(obj:1)
t_y87_256                                           1 	(obj:1)
t_y31_52                                            1 	(obj:1)
t_y31_58                                            1 	(obj:1)
t_y12_31                                            1 	(obj:1)
t_y15_31                                            1 	(obj:1)
t_y31_215                                           1 	(obj:1)
t_y16_144                                           1 	(obj:1)
t_y31_185                                           1 	(obj:1)
t_y87_185                                           1 	(obj:1)
t_y16_234                                           1 	(obj:1)
t_y31_245                                           1 	(obj:1)
t_y31_131                                           1 	(obj:1)
